n_res = 4;
rc = [ 14, 12, 9, 19 ];
n_tasks = 30;
d = [ 2, 8, 3, 9, 7, 7, 10, 3, 3, 10, 8, 10, 9, 10, 9, 4, 7, 3, 10, 8, 9, 7, 1, 1, 2, 2, 1, 7, 2, 4 ];
rr = [| 9, 0, 0, 0, 0, 0, 0, 2, 2, 4, 0, 0, 0, 0, 2, 0, 0, 0, 10, 0, 0, 0, 0, 4, 7, 0, 0, 0, 1, 9
      | 0, 6, 8, 0, 6, 1, 0, 0, 0, 0, 9, 1, 0, 9, 0, 0, 0, 10, 0, 0, 0, 0, 9, 0, 0, 7, 0, 7, 0, 0
      | 0, 0, 0, 0, 0, 0, 0, 0, 0, 0, 0, 0, 9, 0, 0, 1, 0, 0, 0, 0, 2, 0, 0, 0, 0, 0, 0, 0, 0, 0
      | 0, 0, 0, 9, 0, 0, 4, 0, 0, 0, 0, 0, 0, 0, 0, 0, 9, 0, 0, 10, 0, 6, 0, 0, 0, 0, 9, 0, 0, 0 |];
suc = [ { 2 }, 
        { 3 }, 
        { 4 }, 
        { 5 }, 
        { 6 }, 
        { 7 }, 
        { 8 }, 
        { 9 }, 
        { 10 }, 
        { 11 }, 
        { 12 }, 
        { 13 }, 
        { 14 }, 
        { 15 }, 
        { 16 }, 
        { 17 }, 
        { 18 }, 
        { 19 }, 
        { 20 }, 
        { 21 }, 
        { 22 }, 
        { 23 }, 
        { 24 }, 
        { 25 }, 
        { 26 }, 
        { 27 }, 
        { 28 }, 
        { 29 }, 
        { 30 }, 
        {  }]; 
